WARNING: for repeatability, setting FPU to use double precision
============================[ Problem Statistics ]=============================
|                                                                             |
|  Number of variables:      21185701                                         |
|  Number of clauses:        85488342                                         |
|  Parse time:                  20.54 s                                       |
|                                                                             |
c ============================[ Search Statistics ]==============================
c | Conflicts |          ORIGINAL         |          LEARNT          | Progress |
c |           |    Vars  Clauses Literals |    Limit  Clauses Lit/Cl |          |
c ===============================================================================
c Switched to VSIDS.
c Switched to LRB.
c Switched to VSIDS.
c Switched to LRB.
c Switched to VSIDS.
c Switched to LRB.
c Switched to VSIDS.
c Switched to LRB.
c ===============================================================================
restarts                  : 53
conflicts                 : 14296          (4 /sec)
decisions                 : 8877802        (0.00 % random) (2722 /sec)
propagations              : 4120845834     (1263658 /sec)
conflict literals         : 2827280        (4.68 % deleted)

conflicts w/ DIP found    : 12937          (90.49 % of conflicts)
conflicts w/ dangerous DIP: 0              (0.00 % of conflicts)
conflicts w/ DIP-learning : 0              (0.00 % of conflicts)
decisions on ext vars     : 0              (0.00 % of decisions)
total ext vars            : 0           
tried delete ext vars     : 0           
deleted ext vars          : 0           
max ext vars              : 0           

Memory used               : 11080.00 MB
CPU time                  : 3261.04 s
DIP computation time      : 0.30937 s (0.01 % of total time)
ER_sel time               : 0.035577 s
ER_add time               : 0 s
ER_delC time              : 0 s
ER_delV time              : 0 s
ER_sub time               : 0.042727 s
ER_stat time              : 0 s

INDETERMINATE
